20 43
1 2 5
1 3 5
1 4 1
1 5 2
2 3 3
2 4 2
2 5 5
3 4 5
3 5 5
4 5 5
5 6 4
6 7 1
6 8 2
6 9 2
6 10 4
7 8 3
7 9 5
7 10 2
8 9 4
8 10 4
9 10 5
10 11 1
11 12 4
11 13 3
11 14 1
11 15 2
12 13 4
12 14 3
12 15 4
13 14 5
13 15 3
14 15 4
15 16 4
16 17 3
16 18 2
16 19 5
16 20 1
17 18 4
17 19 1
17 20 5
18 19 1
18 20 2
19 20 1
